12112 6888 1080
8505 10495 972
9851 9149 1109
12605 7395 873
13346 4654 879
13227 5773 895
9418 9582 1081
9291 8709 1126
7781 10219 1065
10556 9444 999
11528 8472 1072
11269 7731 1104
8279 9721 1098
13300 5700 879
8440 8560 1137
12686 6314 1012
12102 7898 1004
10616 9384 1030
10482 8518 1122
6157 10843 943
8832 9168 1114
